 vasp.5.4.4.18Apr17-6-g9f103f2a35 (build Jun 24 2018 22:36:06) complex

 executed on             LinuxIFC date 2020.08.12  14:53:14

 INCAR:
 POTCAR:    PAW_PBE Ga_d 06Jul2010
 POTCAR:    PAW_PBE N 08Apr2002
 POTCAR:    PAW_PBE Ga_d 06Jul2010
   VRHFIN =Ga: s2p1

   TITEL  = PAW_PBE Ga_d 06Jul2010
   POMASS =   69.723; ZVAL   =   13.000    mass and valenz
   ENMAX  =  282.691; ENMIN  =  212.018 eV

 POTCAR:    PAW_PBE N 08Apr2002
   VRHFIN =N: s2p3

   TITEL  = PAW_PBE N 08Apr2002
   POMASS =   14.001; ZVAL   =    5.000    mass and valenz
   ENMAX  =  400.000; ENMIN  =  300.000 eV

  PAW_PBE Ga_d 06Jul2010                :
  PAW_PBE N 08Apr2002                   :

 POSCAR: /net/hulk/PMD/skwon/GaN/Wurtzite/vasp/U_
  positions in direct lattice
  velocities in cartesian coordinates
 exchange correlation table for  LEXCH =        8
   RHO(1)=    0.500       N(1)  =     2000
   RHO(2)=  100.500       N(2)  =     4000

 ion  position               nearest neighbor table
   1  0.667  0.333  0.499-   4 1.88   4 1.88   4 1.88   3 1.88
   2  0.333  0.667  0.999-   3 1.88   3 1.88   3 1.88   4 1.88
   3  0.667  0.333  0.876-   2 1.88   2 1.88   2 1.88   1 1.88
   4  0.333  0.667  0.376-   1 1.88   1 1.88   1 1.88   2 1.88

  LATTYP: Found a hexagonal cell.
 ALAT       =     3.0698673668
 C/A-ratio  =     1.6269019694

  Lattice vectors:

 A1 = (   3.0698673668,   0.0000000000,   0.0000000000)
 A2 = (  -1.5349336834,   2.6585831259,   0.0000000000)
 A3 = (   0.0000000000,   0.0000000000,   4.9943732649)

Analysis of symmetry for initial positions (statically):
 Subroutine PRICEL returns:
 Original cell was already a primitive cell.

 Routine SETGRP: Setting up the symmetry group for a
 hexagonal supercell.

 Subroutine GETGRP returns: Found 12 space group operations
 (whereof  6 operations were pure point group operations)
 out of a pool of 24 trial point group operations.

The static configuration has the point symmetry C_3v.
 The point group associated with its full space group is C_6v.

Analysis of symmetry for dynamics (positions and initial velocities):
 Subroutine PRICEL returns:
 Original cell was already a primitive cell.

 Routine SETGRP: Setting up the symmetry group for a
 hexagonal supercell.

 Subroutine GETGRP returns: Found 12 space group operations
 (whereof  6 operations were pure point group operations)
 out of a pool of 24 trial point group operations.

The dynamic configuration has the point symmetry C_3v.
 The point group associated with its full space group is C_6v.

 Subroutine INISYM returns: Found 12 space group operations
 (whereof  6 operations are pure point group operations),
 and found     1 'primitive' translations

 KPOINTS: k-points for bandstructure G-M-K-G-A-L-H
  interpolating k-points between supplied coordinates
  k-points in reciprocal lattice
Space group operators:
 irot       det(A)        alpha          n_x          n_y          n_z        tau_x        tau_y        tau_z
    1     1.000000     0.000000     1.000000     0.000000     0.000000     0.000000     0.000000     0.000000
    2     1.000000   120.000000     0.000000     0.000000    -1.000000     0.000000     0.000000     0.000000
    3     1.000000   120.000000     0.000000     0.000000     1.000000     0.000000     0.000000     0.000000
    4    -1.000000   180.000000     1.000000     0.000000     0.000000     0.000000     0.000000     0.000000
    5    -1.000000   180.000000     0.500000    -0.866025     0.000000     0.000000     0.000000     0.000000
    6    -1.000000   180.000000    -0.500000    -0.866025     0.000000     0.000000     0.000000     0.000000
    7     1.000000    60.000000     0.000000     0.000000    -1.000000     0.000001     0.000000     0.500000
    8     1.000000   180.000000     0.000000     0.000000     1.000000     0.000000     0.000000     0.500000
    9     1.000000    60.000000     0.000000     0.000000     1.000000     0.000000     0.000000     0.500000
   10    -1.000000   180.000000     0.866025    -0.500000     0.000000     0.000000     0.000000     0.500000
   11    -1.000000   180.000000     0.000000     1.000000     0.000000     0.000001     0.000000     0.500000
   12    -1.000000   180.000000     0.866025     0.500000     0.000000     0.000000     0.000000     0.500000

 SYSTEM =  /net/hulk/PMD/skwon/GaN/Wurtzite/vasp/U
 POSCAR =  /net/hulk/PMD/skwon/GaN/Wurtzite/vasp/U_

 Startparameter for this run:
   NWRITE =      2    write-flag & timer
   PREC   = accura    normal or accurate (medium, high low for compatibility)
   ISTART =      0    job   : 0-new  1-cont  2-samecut
   ICHARG =      2    charge: 1-file 2-atom 10-const
   ISPIN  =      1    spin polarized calculation?
   LNONCOLLINEAR =      F non collinear calculations
   LSORBIT =      F    spin-orbit coupling
   INIWAV =      1    electr: 0-lowe 1-rand  2-diag
   LASPH  =      F    aspherical Exc in radial PAW
   METAGGA=      F    non-selfconsistent MetaGGA calc.

 Electronic Relaxation 1
   ENCUT  =  500.0 eV  36.75 Ry    6.06 a.u.   5.60  5.60  9.11*2*pi/ulx,y,z
   ENINI  =  500.0     initial cutoff
   ENAUG  =  627.1 eV  augmentation charge cutoff
   NELM   =    200;   NELMIN=  2; NELMDL=  0     # of ELM steps
   EDIFF  = 0.1E-06   stopping-criterion for ELM
   LREAL  =      F    real-space projection
   NLSPLINE    = F    spline interpolate recip. space projectors
   LCOMPAT=      F    compatible to vasp.4.4
   GGA_COMPAT  = T    GGA compatible to vasp.4.4-vasp.4.6
   LMAXPAW     = -100 max onsite density
   LMAXMIX     =    4 max onsite mixed and CHGCAR
   VOSKOWN=      0    Vosko Wilk Nusair interpolation
   ROPT   =    0.00000   0.00000
 Ionic relaxation
   EDIFFG = 0.1E-02   stopping-criterion for IOM
   NSW    =      0    number of steps for IOM
   NBLOCK =      1;   KBLOCK =      1    inner block; outer block
   IBRION =     -1    ionic relax: 0-MD 1-quasi-New 2-CG
   NFREE  =      1    steps in history (QN), initial steepest desc. (CG)
   ISIF   =      3    stress and relaxation
   IWAVPR =     10    prediction:  0-non 1-charg 2-wave 3-comb
   ISYM   =      2    0-nonsym 1-usesym 2-fastsym
   LCORR  =      T    Harris-Foulkes like correction to forces

   POTIM  = 0.5000    time-step for ionic-motion
   TEIN   =    0.0    initial temperature
   TEBEG  =    0.0;   TEEND  =   0.0 temperature during run
   SMASS  =  -3.00    Nose mass-parameter (am)
   estimated Nose-frequenzy (Omega)   =  0.10E-29 period in steps =****** mass=  -0.215E-27a.u.
   SCALEE = 1.0000    scale energy and forces
   NPACO  =    256;   APACO  = 16.0  distance and # of slots for P.C.
   PSTRESS=    0.0 pullay stress

  Mass of Ions in am
   POMASS =  69.72 14.00
  Ionic Valenz
   ZVAL   =  13.00  5.00
  Atomic Wigner-Seitz radii
  virtual crystal weights
   VCA    =   1.00  1.00
   NELECT =      36.0000    total number of electrons
   NUPDOWN=      -1.0000    fix difference up-down

 DOS related values:
   EMIN   =  10.00;   EMAX   =-10.00  energy-range for DOS
   EFERMI =   0.00
   ISMEAR =     0;   SIGMA  =   0.03  broadening in eV -4-tet -1-fermi 0-gaus

 Electronic relaxation 2 (details)
   IALGO  =     68    algorithm
   LDIAG  =      T    sub-space diagonalisation (order eigenvalues)
   LSUBROT=      F    optimize rotation matrix (better conditioning)
   TURBO    =      0    0=normal 1=particle mesh
   IRESTART =      0    0=no restart 2=restart with 2 vectors
   NREBOOT  =      0    no. of reboots
   NMIN     =      0    reboot dimension
   EREF     =   0.00    reference energy to select bands
   IMIX   =      4    mixing-type and parameters
     AMIX     =   0.40;   BMIX     =  1.00
     AMIX_MAG =   1.60;   BMIX_MAG =  1.00
     AMIN     =   0.10
     WC   =   100.;   INIMIX=   1;  MIXPRE=   1;  MAXMIX= -45

 Intra band minimization:
   WEIMIN = 0.0000     energy-eigenvalue tresh-hold
   EBREAK =  0.11E-08  absolut break condition
   DEPER  =   0.30     relativ break condition

   TIME   =   0.40     timestep for ELM

  volume/ion in A,a.u.               =      10.19        68.77
  Fermi-wavevector in a.u.,A,eV,Ry     =   1.570696  2.968184 33.566728  2.467085
  Thomas-Fermi vector in A             =   2.672390

 Write flags
   LWAVE        =      F    write WAVECAR
   LDOWNSAMPLE  =      F    k-point downsampling of WAVECAR
   LCHARG       =      F    write CHGCAR
   LVTOT        =      F    write LOCPOT, total local potential
   LVHAR        =      F    write LOCPOT, Hartree potential only
   LELF         =      F    write electronic localiz. function (ELF)
   LORBIT       =     11    0 simple, 1 ext, 2 COOP (PROOUT), +10 PAW based schemes

 Dipole corrections
   LMONO  =      F    monopole corrections only (constant potential shift)
   LDIPOL =      F    correct potential (dipole corrections)
   IDIPOL =      0    1-x, 2-y, 3-z, 4-all directions
   EPSILON=  1.0000000 bulk dielectric constant

 LDA+U is selected, type is set to LDAUTYPE =  2
   angular momentum for each species LDAUL =     2   -1
   U (eV)           for each species LDAUU =   6.7  0.0
   J (eV)           for each species LDAUJ =   0.0  0.0
 Exchange correlation treatment:
   GGA     =    PE    GGA type
   VOSKOWN=      0    Vosko Wilk Nusair interpolation
   LHFCALC =     F    Hartree Fock is set to
   LHFONE  =     F    Hartree Fock one center treatment
   AEXX    =    0.0000 exact exchange contribution

 Linear response parameters
   LEPSILON=     F    determine dielectric tensor
   LRPA    =     F    only Hartree local field effects (RPA)
   LNABLA  =     F    use nabla operator in PAW spheres
   LVEL    =     F    velocity operator in full k-point grid
   LINTERFAST=   F  fast interpolation
   KINTER  =     0    interpolate to denser k-point grid
   CSHIFT  =0.1000    complex shift for real part using Kramers Kronig
   OMEGAMAX=  -1.0    maximum frequency
   DEG_THRESHOLD= 0.2000000E-02 threshold for treating states as degnerate
   RTIME   =   -0.100 relaxation time in fs
  (WPLASMAI=    0.000 imaginary part of plasma frequency in eV, 0.658/RTIME)
   DFIELD  = 0.0000000 0.0000000 0.0000000 field for delta impulse in time

 Orbital magnetization related:
   ORBITALMAG=     F  switch on orbital magnetization
   LCHIMAG   =     F  perturbation theory with respect to B field
   DQ        =  0.001000  dq finite difference perturbation B field
   LLRAUG    =     F  two centre corrections for induced B field

 Static calculation
 charge density and potential will be updated during run
 non-spin polarized calculation
 RMM-DIIS sequential band-by-band and
  variant of blocked Davidson during initial phase
 perform sub-space diagonalisation
    before iterative eigenvector-optimisation
 modified Broyden-mixing scheme, WC =      100.0
 initial mixing is a Kerker type mixing with AMIX =  0.4000 and BMIX =      1.0000
 Hartree-type preconditioning will be used
 using additional bands            4
 reciprocal scheme for non local part
 use partial core corrections
 calculate Harris-corrections to forces
   (improved forces if not selfconsistent)
 use gradient corrections
 use of overlap-Matrix (Vanderbilt PP)
 Gauss-broadening in eV      SIGMA  =   0.03

  energy-cutoff  :      500.00
  volume of cell :       40.76
[...]
  o =  0.9918  v =  0.0000  1.0000  0.0000  0.0000  0.0000  0.0000  0.0000  0.0000  0.0000  0.0000      0.0000  0.0000  0.0000  0.0000  0.0000  0.0000  0.0000  0.0000  0.0000  0.0000
  o =  0.9918  v =  0.0000  0.0000  1.0000  0.0000  0.0000  0.0000  0.0000  0.0000  0.0000  0.0000      0.0000  0.0000  0.0000  0.0000  0.0000  0.0000  0.0000  0.0000  0.0000  0.0000
  o =  0.9918  v =  0.0000  0.0000  0.0000  1.0000  0.0000  0.0000  0.0000  0.0000  0.0000  0.0000      0.0000  0.0000  0.0000  0.0000  0.0000  0.0000  0.0000  0.0000  0.0000  0.0000
  o =  0.9918  v =  0.0000  0.0000  0.0000  0.0000  1.0000  0.0000  0.0000  0.0000  0.0000  0.0000      0.0000  0.0000  0.0000  0.0000  0.0000  0.0000  0.0000  0.0000  0.0000  0.0000
  o =  0.9918  v =  0.0000  0.0000  0.0000  0.0000  0.0000  1.0000  0.0000  0.0000  0.0000  0.0000      0.0000  0.0000  0.0000  0.0000  0.0000  0.0000  0.0000  0.0000  0.0000  0.0000
  o =  0.9918  v =  0.0000  0.0000  0.0000  0.0000  0.0000  0.0000  1.0000  0.0000  0.0000  0.0000      0.0000  0.0000  0.0000  0.0000  0.0000  0.0000  0.0000  0.0000  0.0000  0.0000
  o =  0.9918  v =  0.0000  0.0000  0.0000  0.0000  0.0000  0.0000  0.0000  1.0000  0.0000  0.0000      0.0000  0.0000  0.0000  0.0000  0.0000  0.0000  0.0000  0.0000  0.0000  0.0000
  o =  0.9918  v =  0.0000  0.0000  0.0000  0.0000  0.0000  0.0000  0.0000  0.0000  1.0000  0.0000      0.0000  0.0000  0.0000  0.0000  0.0000  0.0000  0.0000  0.0000  0.0000  0.0000
  o =  0.9918  v =  0.0000  0.0000  0.0000  0.0000  0.0000  0.0000  0.0000  0.0000  0.0000  1.0000      0.0000  0.0000  0.0000  0.0000  0.0000  0.0000  0.0000  0.0000  0.0000  0.0000

 eigenvalue-minimisations  : 22860
 total energy-change (2. order) : 0.2818586E+03  (-0.1847084E+04)
 number of electron      36.0000000 magnetization
 augmentation part       36.0000000 magnetization

 Free energy of the ion-electron system (eV)
  alpha Z        PSCENC =       221.54553590
  Ewald energy   TEWEN  =     -3296.45140301
  -Hartree energ DENC   =     -1093.79658799
  -exchange      EXHF   =         0.00000000
  -V(xc)+E(xc)   XCENC  =       130.27062970
  PAW double counting   =      3616.17691320    -4219.75562177
  entropy T*S    EENTRO =        -0.00023895
  eigenvalues    EBANDS =        97.14533668
  atomic energy  EATOM  =      4826.72405682
  Solvation  Ediel_sol  =         0.00000000
  free energy    TOTEN  =       281.85862058 eV

  energy without entropy =      281.85885953  energy(sigma->0) =      281.85874006

[...]

 eigenvalue-minimisations  : 24134
 total energy-change (2. order) :-0.2748060E+03  (-0.2651366E+03)
 number of electron      36.0000000 magnetization
 augmentation part       36.0000000 magnetization

[...]

 Broyden mixing:
  rms(total) = 0.12130E+01    rms(broyden)= 0.12126E+01
  rms(prec ) = 0.26037E+01
  weight for this iteration     100.00

[...]

 eigenvalues of (default mixing * dielectric matrix)
  average eigenvalue GAMMA=   1.0052
  1.0052

[...]

  o =  1.0162  v =  0.0000  0.8723 -0.0000  0.0000 -0.4890  0.0000  0.0000  0.0000  0.0000  0.0000      0.0000  0.0000  0.0000  0.0000  0.0000  0.0000  0.0000  0.0000  0.0000  0.0000
  o =  1.0162  v =  0.0000  0.0000  0.0000  0.0000  0.0000  0.0000  0.8723 -0.0000  0.0000 -0.4890      0.0000  0.0000  0.0000  0.0000  0.0000  0.0000  0.0000  0.0000  0.0000  0.0000
  o =  1.0162  v =  0.0000  0.0000  0.0000  0.0000  0.0000  0.4890  0.0000 -0.0000 -0.8723 -0.0000      0.0000  0.0000  0.0000  0.0000  0.0000  0.0000  0.0000  0.0000  0.0000  0.0000
  o =  1.0162  v =  0.4890  0.0000 -0.0000 -0.8723 -0.0000  0.0000  0.0000  0.0000  0.0000  0.0000      0.0000  0.0000  0.0000  0.0000  0.0000  0.0000  0.0000  0.0000  0.0000  0.0000
  o =  1.0706  v =  0.0000 -0.0000 -1.0000  0.0000 -0.0000  0.0000  0.0000  0.0000  0.0000  0.0000      0.0000  0.0000  0.0000  0.0000  0.0000  0.0000  0.0000  0.0000  0.0000  0.0000
  o =  1.0706  v =  0.0000  0.0000  0.0000  0.0000  0.0000  0.0000 -0.0000 -1.0000  0.0000 -0.0000      0.0000  0.0000  0.0000  0.0000  0.0000  0.0000  0.0000  0.0000  0.0000  0.0000
  o =  1.0775  v =  0.0000 -0.4890  0.0000  0.0000 -0.8723  0.0000  0.0000  0.0000  0.0000  0.0000      0.0000  0.0000  0.0000  0.0000  0.0000  0.0000  0.0000  0.0000  0.0000  0.0000
  o =  1.0775  v =  0.0000  0.0000  0.0000  0.0000  0.0000  0.0000 -0.4890  0.0000  0.0000 -0.8723      0.0000  0.0000  0.0000  0.0000  0.0000  0.0000  0.0000  0.0000  0.0000  0.0000
  o =  1.0775  v = -0.8723  0.0000 -0.0000 -0.4890 -0.0000  0.0000  0.0000  0.0000  0.0000  0.0000      0.0000  0.0000  0.0000  0.0000  0.0000  0.0000  0.0000  0.0000  0.0000  0.0000
  o =  1.0775  v =  0.0000  0.0000  0.0000  0.0000  0.0000 -0.8723  0.0000 -0.0000 -0.4890 -0.0000      0.0000  0.0000  0.0000  0.0000  0.0000  0.0000  0.0000  0.0000  0.0000  0.0000
WARNING in EDDRMM: call to ZHEGV failed, returncode =   8  4     10

[...]

 eigenvalue-minimisations  : 20299
 total energy-change (2. order) : 0.1007711E-06  (-0.4425332E-07)
 number of electron      35.9999971 magnetization
 augmentation part       17.4686351 magnetization

 Broyden mixing:
  rms(total) = 0.38418E-04    rms(broyden)= 0.38417E-04
  rms(prec ) = 0.47972E-04
  weight for this iteration     100.00

 eigenvalues of (default mixing * dielectric matrix)
  average eigenvalue GAMMA=   1.6685
  3.1497  2.6557  2.6557  2.4121  1.4413  1.0494  1.0494  1.0848  1.0848  0.9673
  0.8032

[...]

--------------------------------------- Iteration      1(  17)  ---------------------------------------

atom =   1  type =  1  l = 2

[...]

  o =  1.0162  v =  0.0000  0.8723  0.0000  0.0000  0.4889  0.0000  0.0000  0.0000  0.0000  0.0000      0.0000  0.0000  0.0000  0.0000  0.0000  0.0000  0.0000  0.0000  0.0000  0.0000
  o =  1.0162  v =  0.0000  0.0000  0.0000  0.0000  0.0000  0.0000  0.8723  0.0000  0.0000  0.4889      0.0000  0.0000  0.0000  0.0000  0.0000  0.0000  0.0000  0.0000  0.0000  0.0000
  o =  1.0162  v =  0.0000  0.0000  0.0000  0.0000  0.0000 -0.4889  0.0000  0.0000 -0.8723  0.0000      0.0000  0.0000  0.0000  0.0000  0.0000  0.0000  0.0000  0.0000  0.0000  0.0000
  o =  1.0162  v = -0.4889  0.0000  0.0000 -0.8723  0.0000  0.0000  0.0000  0.0000  0.0000  0.0000      0.0000  0.0000  0.0000  0.0000  0.0000  0.0000  0.0000  0.0000  0.0000  0.0000
  o =  1.0706  v =  0.0000  0.0000  0.0000  0.0000  0.0000  0.0000  0.0000 -1.0000 -0.0000 -0.0000      0.0000  0.0000  0.0000  0.0000  0.0000  0.0000  0.0000  0.0000  0.0000  0.0000
  o =  1.0706  v =  0.0000  0.0000 -1.0000 -0.0000 -0.0000  0.0000  0.0000  0.0000  0.0000  0.0000      0.0000  0.0000  0.0000  0.0000  0.0000  0.0000  0.0000  0.0000  0.0000  0.0000
  o =  1.0775  v =  0.0000 -0.4889 -0.0000 -0.0000  0.8723  0.0000  0.0000  0.0000  0.0000  0.0000      0.0000  0.0000  0.0000  0.0000  0.0000  0.0000  0.0000  0.0000  0.0000  0.0000
  o =  1.0775  v =  0.0000  0.0000  0.0000  0.0000  0.0000  0.0000 -0.4889 -0.0000 -0.0000  0.8723      0.0000  0.0000  0.0000  0.0000  0.0000  0.0000  0.0000  0.0000  0.0000  0.0000
  o =  1.0775  v =  0.8723  0.0000  0.0000 -0.4889 -0.0000  0.0000  0.0000  0.0000  0.0000  0.0000      0.0000  0.0000  0.0000  0.0000  0.0000  0.0000  0.0000  0.0000  0.0000  0.0000
  o =  1.0775  v =  0.0000  0.0000  0.0000  0.0000  0.0000  0.8723  0.0000  0.0000 -0.4889 -0.0000      0.0000  0.0000  0.0000  0.0000  0.0000  0.0000  0.0000  0.0000  0.0000  0.0000
atom =   2  type =  1  l = 2

 onsite density matrix

[...]

spin component  2

  1.0628  0.0000  0.0000  0.0261  0.0000
  0.0000  1.0309 -0.0000 -0.0000  0.0261
  0.0000 -0.0000  1.0706  0.0000 -0.0000
  0.0261 -0.0000  0.0000  1.0309 -0.0000
  0.0000  0.0261 -0.0000 -0.0000  1.0628

 occupancies and eigenvectors

  o =  1.0162  v =  0.0000 -0.8723  0.0000 -0.0000  0.4889  0.0000  0.0000  0.0000  0.0000  0.0000      0.0000  0.0000  0.0000  0.0000  0.0000  0.0000  0.0000  0.0000  0.0000  0.0000
  o =  1.0162  v =  0.0000  0.0000  0.0000  0.0000  0.0000  0.0000 -0.8723  0.0000 -0.0000  0.4889      0.0000  0.0000  0.0000  0.0000  0.0000  0.0000  0.0000  0.0000  0.0000  0.0000
  o =  1.0162  v =  0.0000  0.0000  0.0000  0.0000  0.0000  0.4889  0.0000 -0.0000 -0.8723 -0.0000      0.0000  0.0000  0.0000  0.0000  0.0000  0.0000  0.0000  0.0000  0.0000  0.0000
  o =  1.0162  v =  0.4889  0.0000 -0.0000 -0.8723 -0.0000  0.0000  0.0000  0.0000  0.0000  0.0000      0.0000  0.0000  0.0000  0.0000  0.0000  0.0000  0.0000  0.0000  0.0000  0.0000
  o =  1.0706  v =  0.0000  0.0000  0.0000  0.0000  0.0000  0.0000 -0.0000 -1.0000  0.0000 -0.0000      0.0000  0.0000  0.0000  0.0000  0.0000  0.0000  0.0000  0.0000  0.0000  0.0000
  o =  1.0706  v =  0.0000 -0.0000 -1.0000  0.0000 -0.0000  0.0000  0.0000  0.0000  0.0000  0.0000      0.0000  0.0000  0.0000  0.0000  0.0000  0.0000  0.0000  0.0000  0.0000  0.0000
  o =  1.0775  v = -0.0000 -0.4889  0.0000 -0.0000 -0.8723  0.0000  0.0000  0.0000  0.0000  0.0000      0.0000  0.0000  0.0000  0.0000  0.0000  0.0000  0.0000  0.0000  0.0000  0.0000
  o =  1.0775  v =  0.0000  0.0000  0.0000  0.0000  0.0000 -0.0000 -0.4889  0.0000 -0.0000 -0.8723      0.0000  0.0000  0.0000  0.0000  0.0000  0.0000  0.0000  0.0000  0.0000  0.0000
  o =  1.0775  v =  0.8723 -0.0000  0.0000  0.4889 -0.0000  0.0000  0.0000  0.0000  0.0000  0.0000      0.0000  0.0000  0.0000  0.0000  0.0000  0.0000  0.0000  0.0000  0.0000  0.0000
  o =  1.0775  v =  0.0000  0.0000  0.0000  0.0000  0.0000  0.8723 -0.0000  0.0000  0.4889 -0.0000      0.0000  0.0000  0.0000  0.0000  0.0000  0.0000  0.0000  0.0000  0.0000  0.0000

 eigenvalue-minimisations  : 15617
 total energy-change (2. order) :-0.5789843E-08  (-0.8042302E-08)
 number of electron      35.9999971 magnetization
 augmentation part       17.4686351 magnetization

 Free energy of the ion-electron system (eV)
  alpha Z        PSCENC =       221.54553590
  Ewald energy   TEWEN  =     -3296.45140301
  -Hartree energ DENC   =     -1103.99583596
  -exchange      EXHF   =         0.00000000
  -V(xc)+E(xc)   XCENC  =       131.83832264
  PAW double counting   =      4820.31059264    -5428.86005867
  entropy T*S    EENTRO =        -0.00000000
  eigenvalues    EBANDS =      -194.98275730
  atomic energy  EATOM  =      4826.72405682
  Solvation  Ediel_sol  =         0.00000000
  free energy    TOTEN  =       -23.87154695 eV

  energy without entropy =      -23.87154695  energy(sigma->0) =      -23.87154695

 average (electrostatic) potential at core
  the test charge radii are     1.0314  0.7089
  (the norm of the test charge is              1.0000)
       1 -62.0374       2 -62.0375       3 -60.3935       4 -60.3936

 E-fermi :   6.3117     XC(G=0): -12.2475     alpha+bet :-15.0246

 k-point     1 :       0.0000    0.0000    0.0000
  band No.  band energies     occupation
      1     -11.1658      2.00000
      2     -10.4786      2.00000
      3     -10.4786      2.00000
      4     -10.4779      2.00000
      5     -10.3934      2.00000
      6     -10.3934      2.00000
      7     -10.2278      2.00000
      8      -9.8149      2.00000
      9      -9.8149      2.00000
     10      -9.7141      2.00000
     11      -9.7141      2.00000
     12      -6.6746      2.00000
     13      -1.1400      2.00000
     14       5.2339      2.00000
     15       5.2339      2.00000
     16       6.1107      2.00000
     17       6.1443      2.00000
     18       6.1443      2.00000
     19       9.4554      0.00000
     20      11.5513      0.00000
     21      16.3789      0.00000
     22      16.9993      0.00000

[...]

 k-point   490 :       0.0000    0.0000    0.5000
  band No.  band energies     occupation
      1     -10.9430      2.00000
      2     -10.9429      2.00000
      3     -10.4413      2.00000
      4     -10.4413      2.00000
      5     -10.4413      2.00000
      6     -10.4413      2.00000
      7      -9.7599      2.00000
      8      -9.7599      2.00000
      9      -9.7599      2.00000
     10      -9.7599      2.00000
     11      -8.7196      2.00000
     12      -8.7195      2.00000
     13       2.2887      2.00000
     14       2.2887      2.00000
     15       5.6836      2.00000
     16       5.6836      2.00000
     17       5.6836      2.00000
     18       5.6836      2.00000
     19      11.7510      0.00000
     20      11.7510      0.00000
     21      15.5795      0.00000
     22      15.5795      0.00000

 soft charge-density along one line, spin component           1
         0         1         2         3         4         5         6         7         8         9
 total charge-density along one line

------------------------ aborting loop because EDIFF is reached ----------------------------------------

 total charge

# of ion       s       p       d       tot
    1        0.777   0.945  10.483  12.204
    2        0.777   0.945  10.483  12.204
    3        1.184   2.684   0.000   3.868
    4        1.184   2.684   0.000   3.868
tot          3.920   7.258  20.966  32.145

         DFTD3 V3.0 Rev 1
 IVDW         = 12
 DF pbe
 parameters
 VDW_S6       =    1.0000
 VDW_S8       =    0.7875
 VDW_A1       =    0.4289
 VDW_A2       =    4.4407
 k1-k3        =   16.0000    1.3333   -4.0000
 VDW_RADIUS   =   50.2022 A
 VDW_CNRADIUS =   21.1671 A
 Edisp (eV)   -1.14437

 E6    (eV) :    -0.6803
 E8    (eV) :    -0.4641
 % E8        : 40.56

  FORCE on cell =-STRESS in cart. coord.  units (eV):
  Direction    XX          YY          ZZ          XY          YZ          ZX
  Alpha Z   221.54554   221.54554   221.54554
  Ewald   -1107.84309 -1107.83962 -1080.77094     0.00303     0.00000    -0.00000
  Hartree   360.39046   360.39152   383.21425     0.00092     0.00010    -0.00017
  E(xc)    -202.83011  -202.83012  -202.80463    -0.00001    -0.00000     0.00000
  Local     157.47589   157.47159   112.38534    -0.00375    -0.00017     0.00030
  n-local   -12.70022   -12.94959   -12.28615     0.54394    -0.00000     0.00000
  augment   247.24129   247.24137   247.37671     0.00007     0.00003    -0.00005
  Kinetic   336.84797   340.91640   333.32398    -4.58582     0.00000    -0.00000
  Fock        0.00000     0.00000     0.00000     0.00000     0.00000     0.00000
  vdW        -1.18855    -1.18855    -1.18042    -0.00000     0.00000    -0.00000
  Total       0.84886     0.84886     0.80367     0.00000     0.00000    -0.00000
  in kB      33.36535    33.36535    31.58911     0.00000     0.00000    -0.00000

 VOLUME and BASIS-vectors are now :
  energy-cutoff  :      500.00
  volume of cell :       40.76
      direct lattice vectors                 reciprocal lattice vectors
     3.069867367  0.000000000  0.000000000     0.325746972  0.188070102  0.000000000
    -1.534933683  2.658583126  0.000000000     0.000000000  0.376140204  0.000000000
     0.000000000  0.000000000  4.994373265     0.000000000  0.000000000  0.200225323

  length of vectors
     3.069867367  3.069867367  4.994373265     0.376140204  0.376140204  0.200225323

 FORCES acting on ions
    electron-ion (+dipol)            ewald-force                    non-local-force                 convergence-correction
   -.347E-03 0.200E-03 -.191E+01   -.947E-03 0.543E-03 0.419E+01   -.833E-16 -.278E-16 -.231E+01   -.113E-08 0.632E-09 0.195E-03
   0.320E-03 -.186E-03 -.191E+01   0.947E-03 -.543E-03 0.419E+01   0.416E-16 0.278E-16 -.231E+01   0.312E-09 -.166E-09 0.196E-03
   -.102E-02 0.579E-03 0.334E+01   -.852E-03 0.488E-03 -.419E+01   0.000E+00 0.000E+00 0.881E+00   -.231E-08 0.132E-08 0.238E-04
   0.292E-04 -.191E-04 0.334E+01   0.852E-03 -.488E-03 -.419E+01   -.173E-17 -.173E-17 0.881E+00   0.988E-09 -.568E-09 0.237E-04
   -.101E-02 0.573E-03 0.286E+01   -.652E-14 -.108E-13 0.000E+00   -.434E-16 -.173E-17 -.286E+01   -.214E-08 0.122E-08 0.438E-03

 POSITION                                       TOTAL-FORCE (eV/Angst)
      1.53494      0.88619      2.49139         0.000000     -0.000000     -0.028521
     -0.00000      1.77239      4.98857        -0.000000      0.000000     -0.028521
      1.53494      0.88619      4.37588        -0.000000      0.000000      0.028521
     -0.00000      1.77239      1.87869        -0.000000     -0.000000      0.028521
    total drift:                               -0.001012      0.000573     -0.001643

  FREE ENERGIE OF THE ION-ELECTRON SYSTEM (eV)
  free  energy   TOTEN  =       -25.01591403 eV

  energy  without entropy=      -25.01591403  energy(sigma->0) =      -25.01591403

 total charge

# of ion       s       p       d       tot
    1        0.777   0.945  10.483  12.204
    2        0.777   0.945  10.483  12.204
    3        1.184   2.684   0.000   3.868
    4        1.184   2.684   0.000   3.868
tot          3.920   7.258  20.966  32.145